(set-info :smt-lib-version 2.6)
(set-logic QF_UFNIA)
(set-info :source |
Generated by: Geoff Sutcliffe
Generated on: 2026-03-11
Generator: TPTPWorld
Application: Benchmarking automated theorem provers
Time limit: 120.0

These benchmarks are translations from the TPTP Library (Thousands of
Problems for Theorem Provers), see http://www.cs.miami.edu/~tptp/

The TPTP is maintained by Geoff Sutcliffe, and he contributed this
selection of benchmarks to SMT-LIB.  They were exported from the
v9.2.1 realease of TPTP.
|)
(set-info :category "industrial")
(set-info :status "unknown")
; SZS status Success
(declare-sort $$unsorted 0)
(declare-fun tptp.x () Int)
(declare-fun tptp.y () Int)
(assert (let ((_let_1 (* tptp.x tptp.x))) (= (+ (+ (+ (* (* _let_1 tptp.x) tptp.y) (* _let_1 tptp.y)) (* (* (* 3 tptp.x) tptp.x) tptp.x)) (* (* 2 tptp.x) tptp.x)) 0)))
(assert (let ((_let_1 (* (* 2 tptp.x) tptp.x))) (= (+ (+ (+ (+ (- (+ (* (* _let_1 tptp.x) tptp.y) (* (- 1) (* tptp.x tptp.y))) tptp.y) (* (* (* 6 tptp.x) tptp.x) tptp.x)) (* (- 1) _let_1)) (* (- 1) (* 3 tptp.x))) 3) 0)))
(assert (= (- (+ (+ (+ (+ (* (* (* 3 tptp.x) tptp.x) tptp.y) (* (* 2 tptp.x) tptp.y)) tptp.y) (* (* 9 tptp.x) tptp.x)) (* 5 tptp.x)) 3) 0))
(assert (let ((_let_1 (* tptp.x tptp.x))) (not (= (+ (* 2 (* _let_1 tptp.x)) (* (- 1) (+ (* 5 tptp.x) (* 5 _let_1)))) 0))))
(check-sat)
